p cnf 13 49
4 -6 -8 0
-8 10 12 0
3 -4 6 0
-9 -11 12 0
3 5 -12 0
-4 -5 -8 0
2 7 11 0
-1 10 -11 0
9 -11 -13 0
7 -11 -13 0
-2 5 -8 0
-2 -7 11 0
1 -6 -11 0
-1 4 -8 0
5 -11 12 0
-1 2 -5 0
-4 11 13 0
-3 4 -10 0
2 4 6 0
-2 -6 7 0
5 9 13 0
-4 -11 -12 0
3 -8 -9 0
-2 -3 -7 0
-1 3 -10 0
5 -10 -11 0
2 -9 13 0
1 -4 -9 0
1 -2 12 0
-1 -6 12 0
-3 9 12 0
-2 9 11 0
7 -9 12 0
-5 -12 -13 0
7 8 -11 0
-2 11 -13 0
-5 11 -13 0
1 2 4 0
-2 -4 -6 0
-1 -2 9 0
-5 -6 -11 0
10 11 12 0
-3 5 6 0
7 8 -10 0
3 6 10 0
4 -6 11 0
3 -9 13 0
-1 -2 7 0
3 -8 -10 0
